# Initialization
units si
dimension 3
atom_style atomic
pair_style lj/cut 2.5e-10
boundary p p p

# System definition
read_data minimized_coordinate.data

# Simulation settings
mass 1 1
mass 2 1
pair_coeff 1 1 1.8e-21 1.3e-10
pair_coeff 2 2 0.9e-21 2.6e-10
neigh_modify every 1 delay 5 check yes

# Visualization
thermo 1000
dump mydmp all atom 50 dump.run.lammpstrj

# Run
velocity all create 1.0 4928459 mom yes rot yes dist gaussian
fix mynve all nve
fix mylgv all langevin 1.0 1.0 0.1 1530917 zero yes
timestep 5e-15
run 80000
