#  Initialization
units lj
dimension 3
atom_style atomic
pair_style lj/cut 2.5
boundary p p p

#  System definition
read_data minimized_coordinate.data

#  Simulation settings
mass 1 1
mass 2 1
pair_coeff 1 1 1.0 1.0
pair_coeff 2 2 0.5 3.0
neigh_modify every 1 delay 5 check yes
group type1 type 1
group type2 type 2

# Visualization
thermo 1000
dump mydmp all atom 50 dump.run.lammpstrj

#  Run
velocity all create 1.0 4928459 mom yes rot yes dist gaussian
fix mynve all nve
fix mylgv all langevin 1.0 1.0 0.1 1530917 zero yes
timestep 0.005
run 80000
write_data mixed.data
