# Initialization
units metal
dimension 3
atom_style atomic
pair_style lj/cut 2.4
boundary p p p

#  System definition
read_data coordinate_initial.data

# Simulation settings
mass 1 40 #mass (grams/mol)
mass 2 40 #mass (grams/mol)

pair_coeff 1 1 0.01 1.3 #epsilon(eV) sigma(Angstrom)
pair_coeff 2 2 0.05 2.6 #epsilon(eV) sigma(Angstrom)
neighbor 0.3 bin
neigh_modify every 1 delay 5 check yes binsize 1.2


#  Visualization
thermo 1000
dump mydmp all xyz 50 dump.xyz


# Run
velocity all create 10.0 4928459 mom yes rot yes dist gaussian
fix mynve all nve
timestep 0.005
run 20000
